unsat
(:SPACER-cluster-out-of-gas           609
 :SPACER-conj                         217
 :SPACER-inductive-gen                1956
 :SPACER-inductive-gen-weaken-fail    2000
 :SPACER-inductive-gen-weaken-success 1
 :SPACER-inductive-level              119
 :SPACER-max-depth                    119
 :SPACER-max-query-lvl                119
 :SPACER-non-local-gen                1415
 :SPACER-num-active-lemmas            154
 :SPACER-num-ctp-blocked              6277
 :SPACER-num-invariants               122
 :SPACER-num-is_invariant             23995
 :SPACER-num-lemma-jumped             615
 :SPACER-num-lemmas                   1434
 :SPACER-num-pobs                     627
 :SPACER-num-propagations             16904
 :SPACER-num-queries                  767
 :SPACER-subsume-failed               11
 :SPACER-subsume-pob                  306
 :SPACER-subsume-success              2188
 :added-eqs                           157818
 :arith-assert-diseq                  526242
 :arith-assert-lower                  1272412
 :arith-assert-upper                  1827816
 :arith-bound-prop                    4560
 :arith-conflicts                     846
 :arith-eq-adapter                    16156
 :arith-fixed-eqs                     27332
 :arith-num-rows                      64
 :arith-offset-eqs                    13730
 :arith-pivots                        7506
 :arith-row-summations                55182
 :arith-tableau-max-columns           154
 :arith-tableau-max-rows              64
 :conflicts                           50950
 :decisions                           807428
 :del-clause                          49564
 :final-checks                        3952
 :iuc_solver.num_proxies              650
 :max-memory                          346.67
 :memory                              327.03
 :minimized-lits                      1396
 :mk-bool-var                         126120
 :mk-clause                           129710
 :num-allocs                          2495173174232.00
 :num-checks                          49108
 :pool_solver.checks                  24554
 :pool_solver.checks.sat              1943
 :pool_solver.checks.undef            33
 :propagations                        10132784
 :rlimit-count                        30205129
 :time                                91.91
 :time.iuc_solver.get_iuc             2.23
 :time.iuc_solver.get_iuc.hyp_reduce1 0.35
 :time.iuc_solver.get_iuc.hyp_reduce2 0.81
 :time.iuc_solver.get_iuc.learn_core  0.34
 :time.pool_solver.proof              0.33
 :time.pool_solver.smt.total          77.88
 :time.pool_solver.smt.total.sat      16.12
 :time.pool_solver.smt.total.undef    0.86
 :time.spacer.ctp                     1.18
 :time.spacer.init_rules              0.00
 :time.spacer.mbp                     0.21
 :time.spacer.solve                   91.74
 :time.spacer.solve.propagate         58.02
 :time.spacer.solve.reach             33.72
 :time.spacer.solve.reach.children    0.99
 :time.spacer.solve.reach.cluster     2.76
 :time.spacer.solve.reach.gen.global  3.46
 :time.spacer.solve.reach.gen.ind     2.63
 :time.spacer.solve.reach.is-reach    0.51)
(:max-memory   346.67
 :memory       327.03
 :num-allocs   2495173174232.00
 :rlimit-count 30205129
 :time         91.91
 :total-time   91.92)
